c generated by sgen1
c Command: ./sgen1 -unsat -n 33 
p cnf 33 76
-2 -3 -4 0
-1 -3 -4 0
-1 -2 -4 0
-1 -2 -3 0
-6 -7 -8 0
-5 -7 -8 0
-5 -6 -8 0
-5 -6 -7 0
-10 -11 -12 0
-9 -11 -12 0
-9 -10 -12 0
-9 -10 -11 0
-14 -15 -16 0
-13 -15 -16 0
-13 -14 -16 0
-13 -14 -15 0
-18 -19 -20 0
-17 -19 -20 0
-17 -18 -20 0
-17 -18 -19 0
-22 -23 -24 0
-21 -23 -24 0
-21 -22 -24 0
-21 -22 -23 0
-26 -27 -28 0
-25 -27 -28 0
-25 -26 -28 0
-25 -26 -27 0
-29 -30 -31  0
-29 -30 -32  0
-29 -30 -33  0
-29 -31 -32  0
-29 -31 -33  0
-29 -32 -33  0
-30 -31 -32  0
-30 -31 -33  0
-30 -32 -33  0
-31 -32 -33  0
7 13 18 0
33 13 18 0
33 7 18 0
33 7 13 0
32 23 1 0
19 23 1 0
19 32 1 0
19 32 23 0
31 6 25 0
22 6 25 0
22 31 25 0
22 31 6 0
17 30 28 0
12 30 28 0
12 17 28 0
12 17 30 0
9 29 4 0
16 29 4 0
16 9 4 0
16 9 29 0
15 21 3 0
27 21 3 0
27 15 3 0
27 15 21 0
11 24 5 0
14 24 5 0
14 11 5 0
14 11 24 0
2 20 10  0
2 20 26  0
2 20 8  0
2 10 26  0
2 10 8  0
2 26 8  0
20 10 26  0
20 10 8  0
20 26 8  0
10 26 8  0
